0 0 0 0
0 1 0 0
0 2 0 0
0 3 2 0
0 4 1 1
0 5 2 4
0 6 1 4
0 7 0 11
0 8 2 4
0 9 0 14
0 10 2 14
0 11 2 4
0 12 2 24
0 13 0 14
0 14 2 10
0 15 2 11
0 16 2 16
0 17 2 16
0 18 2 33
0 19 2 32
0 20 2 16
0 21 2 19
0 22 0 29
0 23 2 32
0 24 0 24
0 25 2 19
0 26 1 28
0 27 2 32
0 28 0 42
0 29 1 42
0 30 2 41
0 31 0 49
